p cnf 1093 2512
1 0
2 0
3 0
4 0
5 0
6 0
7 0
8 0
9 0
10 0
11 0
12 0
13 0
14 0
15 0
16 0
17 0
18 0
19 0
20 0
21 0
22 0
23 0
24 0
25 0
26 0
27 0
28 0
29 0
30 0
31 0
32 0
33 0
34 0
35 0
36 0
37 0
38 0
39 0
40 0
41 0
42 0
43 0
44 0
45 0
46 0
47 0
48 0
49 0
50 0
-51 0
-52 0
-53 0
-54 0
-55 0
-56 0
-57 0
-58 0
-59 0
-60 0
-61 0
-62 0
-63 0
-64 0
-65 0
-66 0
-67 0
-68 0
-69 0
-70 0
-71 0
-72 0
-73 0
-74 0
-75 0
-76 0
-77 0
-78 0
-79 0
-80 0
-81 0
-82 0
-83 0
-84 0
-85 0
-86 0
-87 0
-88 0
-89 0
-90 0
-91 0
-92 0
-93 0
-94 0
-95 0
-96 0
-97 0
-98 0
-99 0
-100 0
1 -101 0
-1 101 0
2 -102 0
-2 102 0
3 -103 0
-3 103 0
4 -104 0
-4 104 0
5 -105 0
-5 105 0
6 -106 0
-6 106 0
7 -107 0
-7 107 0
8 -108 0
-8 108 0
9 -109 0
-9 109 0
10 -110 0
-10 110 0
11 -111 0
-11 111 0
12 -112 0
-12 112 0
13 -113 0
-13 113 0
14 -114 0
-14 114 0
15 -115 0
-15 115 0
16 -116 0
-16 116 0
17 -117 0
-17 117 0
18 -118 0
-18 118 0
19 -119 0
-19 119 0
20 -120 0
-20 120 0
21 -121 0
-21 121 0
22 -122 0
-22 122 0
23 -123 0
-23 123 0
24 -124 0
-24 124 0
25 -125 0
-25 125 0
26 -126 0
-26 126 0
27 -127 0
-27 127 0
28 -128 0
-28 128 0
29 -129 0
-29 129 0
30 -130 0
-30 130 0
31 -131 0
-31 131 0
32 -132 0
-32 132 0
33 -133 0
-33 133 0
34 -134 0
-34 134 0
35 -135 0
-35 135 0
36 -136 0
-36 136 0
37 -137 0
-37 137 0
38 -138 0
-38 138 0
39 -139 0
-39 139 0
40 -140 0
-40 140 0
41 -141 0
-41 141 0
42 -142 0
-42 142 0
43 -143 0
-43 143 0
44 -144 0
-44 144 0
45 -145 0
-45 145 0
46 -146 0
-46 146 0
47 -147 0
-47 147 0
48 -148 0
-48 148 0
49 -149 0
-49 149 0
50 -150 0
-50 150 0
151 152 0
153 152 0
154 152 0
-153 -151 -154 -152 0
-51 -155 152 0
51 -152 -155 0
155 -152 -51 0
51 155 152 0
-155 0
153 156 0
154 156 0
-153 -154 -156 0
-157 156 -158 0
157 -156 -158 0
158 -156 -157 0
157 156 158 0
-158 0
159 -154 0
-159 154 0
160 161 0
162 161 0
163 161 0
-163 -160 -162 -161 0
-52 161 -164 0
52 -161 -164 0
164 -161 -52 0
52 164 161 0
-164 0
-165 161 -166 0
165 -161 -166 0
166 -161 -165 0
165 161 166 0
-166 0
-167 161 -168 0
167 -161 -168 0
168 -161 -167 0
167 161 168 0
-168 0
169 170 0
171 170 0
172 170 0
173 170 0
-174 0
-53 170 -175 0
53 -170 -175 0
175 -170 -53 0
53 170 175 0
-175 0
171 176 0
172 176 0
173 176 0
-171 -172 -173 -176 0
-177 176 -178 0
177 -176 -178 0
178 -176 -177 0
177 176 178 0
-178 0
-179 176 -180 0
179 -176 -180 0
180 -176 -179 0
179 176 180 0
-180 0
-181 176 -182 0
181 -176 -182 0
182 -176 -181 0
181 176 182 0
-182 0
183 184 0
185 184 0
186 184 0
187 184 0
-188 0
-54 184 -189 0
54 -184 -189 0
189 -184 -54 0
54 184 189 0
-189 0
185 190 0
186 190 0
187 190 0
-185 -186 -187 -190 0
-191 190 -192 0
191 -190 -192 0
192 -190 -191 0
191 190 192 0
-192 0
186 193 0
187 193 0
-186 -187 -193 0
-194 193 -195 0
194 -193 -195 0
195 -193 -194 0
194 193 195 0
-195 0
-196 193 -197 0
196 -193 -197 0
197 -193 -196 0
196 193 197 0
-197 0
198 199 0
200 199 0
201 199 0
202 199 0
203 199 0
204 199 0
205 199 0
206 199 0
-207 0
-55 199 -208 0
55 -199 -208 0
208 -199 -55 0
55 199 208 0
-208 0
200 209 0
201 209 0
202 209 0
203 209 0
204 209 0
205 209 0
206 209 0
-210 0
-211 209 -212 0
211 -209 -212 0
212 -209 -211 0
211 209 212 0
-212 0
201 213 0
202 213 0
203 213 0
204 213 0
205 213 0
206 213 0
-214 0
-215 213 -216 0
215 -213 -216 0
216 -213 -215 0
215 213 216 0
-216 0
202 217 0
203 217 0
204 217 0
205 217 0
206 217 0
-218 0
-219 217 -220 0
219 -217 -220 0
220 -217 -219 0
219 217 220 0
-220 0
203 221 0
204 221 0
205 221 0
206 221 0
-222 0
-223 221 -224 0
223 -221 -224 0
224 -221 -223 0
223 221 224 0
-224 0
-225 221 -226 0
225 -221 -226 0
226 -221 -225 0
225 221 226 0
-226 0
-227 221 -228 0
227 -221 -228 0
228 -221 -227 0
227 221 228 0
-228 0
-229 221 -230 0
229 -221 -230 0
230 -221 -229 0
229 221 230 0
-230 0
231 232 0
233 232 0
234 232 0
235 232 0
236 232 0
237 232 0
-238 0
-56 232 -239 0
56 -232 -239 0
239 -232 -56 0
56 232 239 0
-239 0
233 240 0
234 240 0
235 240 0
236 240 0
237 240 0
-241 0
-242 240 -243 0
242 -240 -243 0
243 -240 -242 0
242 240 243 0
-243 0
234 244 0
235 244 0
236 244 0
237 244 0
-245 0
-246 244 -247 0
246 -244 -247 0
247 -244 -246 0
246 244 247 0
-247 0
-248 244 -249 0
248 -244 -249 0
249 -244 -248 0
248 244 249 0
-249 0
-250 244 -251 0
250 -244 -251 0
251 -244 -250 0
250 244 251 0
-251 0
-252 244 -253 0
252 -244 -253 0
253 -244 -252 0
252 244 253 0
-253 0
254 255 0
256 255 0
257 255 0
258 255 0
259 255 0
260 255 0
261 255 0
-262 0
-57 255 -263 0
57 -255 -263 0
263 -255 -57 0
57 255 263 0
-263 0
256 264 0
257 264 0
258 264 0
259 264 0
260 264 0
261 264 0
-265 0
-266 264 -267 0
266 -264 -267 0
267 -264 -266 0
266 264 267 0
-267 0
257 268 0
258 268 0
259 268 0
260 268 0
261 268 0
-269 0
-270 268 -271 0
270 -268 -271 0
271 -268 -270 0
270 268 271 0
-271 0
258 272 0
259 272 0
260 272 0
261 272 0
-273 0
-274 272 -275 0
274 -272 -275 0
275 -272 -274 0
274 272 275 0
-275 0
-276 272 -277 0
276 -272 -277 0
277 -272 -276 0
276 272 277 0
-277 0
-278 272 -279 0
278 -272 -279 0
279 -272 -278 0
278 272 279 0
-279 0
-280 272 -281 0
280 -272 -281 0
281 -272 -280 0
280 272 281 0
-281 0
282 283 0
284 283 0
-284 -282 -283 0
-58 283 -285 0
58 -283 -285 0
285 -283 -58 0
58 283 285 0
-285 0
286 -284 0
-286 284 0
287 288 0
289 288 0
290 288 0
291 288 0
292 288 0
293 288 0
294 288 0
-295 0
-59 288 -296 0
59 -288 -296 0
296 -288 -59 0
59 288 296 0
-296 0
289 297 0
290 297 0
291 297 0
292 297 0
293 297 0
294 297 0
-298 0
-299 297 -300 0
299 -297 -300 0
300 -297 -299 0
299 297 300 0
-300 0
290 301 0
291 301 0
292 301 0
293 301 0
294 301 0
-302 0
-303 301 -304 0
303 -301 -304 0
304 -301 -303 0
303 301 304 0
-304 0
291 305 0
292 305 0
293 305 0
294 305 0
-306 0
-307 305 -308 0
307 -305 -308 0
308 -305 -307 0
307 305 308 0
-308 0
-309 305 -310 0
309 -305 -310 0
310 -305 -309 0
309 305 310 0
-310 0
-311 305 -312 0
311 -305 -312 0
312 -305 -311 0
311 305 312 0
-312 0
-313 305 -314 0
313 -305 -314 0
314 -305 -313 0
313 305 314 0
-314 0
315 316 0
317 316 0
318 316 0
319 316 0
-320 0
-60 316 -321 0
60 -316 -321 0
321 -316 -60 0
60 316 321 0
-321 0
317 322 0
318 322 0
319 322 0
-317 -319 -318 -322 0
-323 322 -324 0
323 -322 -324 0
324 -322 -323 0
323 322 324 0
-324 0
318 325 0
319 325 0
-319 -318 -325 0
-326 325 -327 0
326 -325 -327 0
327 -325 -326 0
326 325 327 0
-327 0
328 -319 0
-328 319 0
61 -329 0
-61 329 0
330 331 0
332 331 0
333 331 0
334 331 0
335 331 0
336 331 0
-337 0
-62 331 -338 0
62 -331 -338 0
338 -331 -62 0
62 331 338 0
-338 0
332 339 0
333 339 0
334 339 0
335 339 0
336 339 0
-340 0
-341 339 -342 0
341 -339 -342 0
342 -339 -341 0
341 339 342 0
-342 0
333 343 0
334 343 0
335 343 0
336 343 0
-344 0
-345 343 -346 0
345 -343 -346 0
346 -343 -345 0
345 343 346 0
-346 0
-347 343 -348 0
347 -343 -348 0
348 -343 -347 0
347 343 348 0
-348 0
-349 343 -350 0
349 -343 -350 0
350 -343 -349 0
349 343 350 0
-350 0
-351 343 -352 0
351 -343 -352 0
352 -343 -351 0
351 343 352 0
-352 0
353 354 0
355 354 0
356 354 0
357 354 0
358 354 0
359 354 0
-360 0
-63 354 -361 0
63 -354 -361 0
361 -354 -63 0
63 354 361 0
-361 0
355 362 0
356 362 0
357 362 0
358 362 0
359 362 0
-363 0
-364 362 -365 0
364 -362 -365 0
365 -362 -364 0
364 362 365 0
-365 0
356 366 0
357 366 0
358 366 0
359 366 0
-367 0
-368 366 -369 0
368 -366 -369 0
369 -366 -368 0
368 366 369 0
-369 0
-370 366 -371 0
370 -366 -371 0
371 -366 -370 0
370 366 371 0
-371 0
-372 366 -373 0
372 -366 -373 0
373 -366 -372 0
372 366 373 0
-373 0
-374 366 -375 0
374 -366 -375 0
375 -366 -374 0
374 366 375 0
-375 0
376 377 0
378 377 0
379 377 0
380 377 0
381 377 0
-382 0
-64 377 -383 0
64 -377 -383 0
383 -377 -64 0
64 377 383 0
-383 0
378 384 0
379 384 0
380 384 0
381 384 0
-385 0
-386 384 -387 0
386 -384 -387 0
387 -384 -386 0
386 384 387 0
-387 0
379 388 0
380 388 0
381 388 0
-379 -380 -381 -388 0
-389 388 -390 0
389 -388 -390 0
390 -388 -389 0
389 388 390 0
-390 0
380 391 0
381 391 0
-380 -381 -391 0
-392 391 -393 0
392 -391 -393 0
393 -391 -392 0
392 391 393 0
-393 0
-394 391 -395 0
394 -391 -395 0
395 -391 -394 0
394 391 395 0
-395 0
396 397 0
398 397 0
399 397 0
400 397 0
401 397 0
-402 0
-65 397 -403 0
65 -397 -403 0
403 -397 -65 0
65 397 403 0
-403 0
398 404 0
399 404 0
400 404 0
401 404 0
-405 0
-406 404 -407 0
406 -404 -407 0
407 -404 -406 0
406 404 407 0
-407 0
-408 404 -409 0
408 -404 -409 0
409 -404 -408 0
408 404 409 0
-409 0
-410 404 -411 0
410 -404 -411 0
411 -404 -410 0
410 404 411 0
-411 0
-412 404 -413 0
412 -404 -413 0
413 -404 -412 0
412 404 413 0
-413 0
414 415 0
416 415 0
417 415 0
418 415 0
419 415 0
420 415 0
421 415 0
-422 0
-66 415 -423 0
66 -415 -423 0
423 -415 -66 0
66 415 423 0
-423 0
416 424 0
417 424 0
418 424 0
419 424 0
420 424 0
421 424 0
-425 0
-426 424 -427 0
426 -424 -427 0
427 -424 -426 0
426 424 427 0
-427 0
417 428 0
418 428 0
419 428 0
420 428 0
421 428 0
-429 0
-430 428 -431 0
430 -428 -431 0
431 -428 -430 0
430 428 431 0
-431 0
418 432 0
419 432 0
420 432 0
421 432 0
-433 0
-434 432 -435 0
434 -432 -435 0
435 -432 -434 0
434 432 435 0
-435 0
-436 432 -437 0
436 -432 -437 0
437 -432 -436 0
436 432 437 0
-437 0
-438 432 -439 0
438 -432 -439 0
439 -432 -438 0
438 432 439 0
-439 0
-440 432 -441 0
440 -432 -441 0
441 -432 -440 0
440 432 441 0
-441 0
442 443 0
444 443 0
445 443 0
-444 -442 -445 -443 0
-67 443 -446 0
67 -443 -446 0
446 -443 -67 0
67 443 446 0
-446 0
444 447 0
445 447 0
-444 -445 -447 0
-448 447 -449 0
448 -447 -449 0
449 -447 -448 0
448 447 449 0
-449 0
450 -445 0
-450 445 0
451 452 0
453 452 0
454 452 0
455 452 0
456 452 0
457 452 0
458 452 0
-459 0
-68 452 -460 0
68 -452 -460 0
460 -452 -68 0
68 452 460 0
-460 0
453 461 0
454 461 0
455 461 0
456 461 0
457 461 0
458 461 0
-462 0
-463 461 -464 0
463 -461 -464 0
464 -461 -463 0
463 461 464 0
-464 0
454 465 0
455 465 0
456 465 0
457 465 0
458 465 0
-466 0
-467 465 -468 0
467 -465 -468 0
468 -465 -467 0
467 465 468 0
-468 0
455 469 0
456 469 0
457 469 0
458 469 0
-470 0
-471 469 -472 0
471 -469 -472 0
472 -469 -471 0
471 469 472 0
-472 0
456 473 0
457 473 0
458 473 0
-456 -457 -458 -473 0
-474 473 -475 0
474 -473 -475 0
475 -473 -474 0
474 473 475 0
-475 0
-476 473 -477 0
476 -473 -477 0
477 -473 -476 0
476 473 477 0
-477 0
-478 473 -479 0
478 -473 -479 0
479 -473 -478 0
478 473 479 0
-479 0
480 481 0
482 481 0
483 481 0
484 481 0
485 481 0
486 481 0
-487 0
-69 481 -488 0
69 -481 -488 0
488 -481 -69 0
69 481 488 0
-488 0
482 489 0
483 489 0
484 489 0
485 489 0
486 489 0
-490 0
-491 489 -492 0
491 -489 -492 0
492 -489 -491 0
491 489 492 0
-492 0
483 493 0
484 493 0
485 493 0
486 493 0
-494 0
-495 493 -496 0
495 -493 -496 0
496 -493 -495 0
495 493 496 0
-496 0
484 497 0
485 497 0
486 497 0
-484 -485 -486 -497 0
-498 497 -499 0
498 -497 -499 0
499 -497 -498 0
498 497 499 0
-499 0
-500 497 -501 0
500 -497 -501 0
501 -497 -500 0
500 497 501 0
-501 0
-502 497 -503 0
502 -497 -503 0
503 -497 -502 0
502 497 503 0
-503 0
504 505 0
506 505 0
-506 -504 -505 0
-70 505 -507 0
70 -505 -507 0
507 -505 -70 0
70 505 507 0
-507 0
508 -506 0
-508 506 0
509 510 0
511 510 0
512 510 0
513 510 0
514 510 0
-515 0
-71 510 -516 0
71 -510 -516 0
516 -510 -71 0
71 510 516 0
-516 0
511 517 0
512 517 0
513 517 0
514 517 0
-518 0
-519 517 -520 0
519 -517 -520 0
520 -517 -519 0
519 517 520 0
-520 0
512 521 0
513 521 0
514 521 0
-512 -513 -514 -521 0
-522 521 -523 0
522 -521 -523 0
523 -521 -522 0
522 521 523 0
-523 0
513 524 0
514 524 0
-513 -514 -524 0
-525 524 -526 0
525 -524 -526 0
526 -524 -525 0
525 524 526 0
-526 0
-527 524 -528 0
527 -524 -528 0
528 -524 -527 0
527 524 528 0
-528 0
529 530 0
531 530 0
-529 -531 -530 0
-72 530 -532 0
72 -530 -532 0
532 -530 -72 0
72 530 532 0
-532 0
-533 530 -534 0
533 -530 -534 0
534 -530 -533 0
533 530 534 0
-534 0
535 536 0
537 536 0
538 536 0
539 536 0
-540 0
-73 536 -541 0
73 -536 -541 0
541 -536 -73 0
73 536 541 0
-541 0
537 542 0
538 542 0
539 542 0
-537 -538 -539 -542 0
-543 542 -544 0
543 -542 -544 0
544 -542 -543 0
543 542 544 0
-544 0
538 545 0
539 545 0
-538 -539 -545 0
-546 545 -547 0
546 -545 -547 0
547 -545 -546 0
546 545 547 0
-547 0
-548 545 -549 0
548 -545 -549 0
549 -545 -548 0
548 545 549 0
-549 0
550 551 0
552 551 0
553 551 0
554 551 0
555 551 0
556 551 0
557 551 0
-558 0
-74 551 -559 0
74 -551 -559 0
559 -551 -74 0
74 551 559 0
-559 0
552 560 0
553 560 0
554 560 0
555 560 0
556 560 0
557 560 0
-561 0
-562 560 -563 0
562 -560 -563 0
563 -560 -562 0
562 560 563 0
-563 0
553 564 0
554 564 0
555 564 0
556 564 0
557 564 0
-565 0
-566 564 -567 0
566 -564 -567 0
567 -564 -566 0
566 564 567 0
-567 0
554 568 0
555 568 0
556 568 0
557 568 0
-569 0
-570 568 -571 0
570 -568 -571 0
571 -568 -570 0
570 568 571 0
-571 0
555 572 0
556 572 0
557 572 0
-555 -557 -556 -572 0
-573 572 -574 0
573 -572 -574 0
574 -572 -573 0
573 572 574 0
-574 0
-575 572 -576 0
575 -572 -576 0
576 -572 -575 0
575 572 576 0
-576 0
-577 572 -578 0
577 -572 -578 0
578 -572 -577 0
577 572 578 0
-578 0
579 580 0
581 580 0
582 580 0
583 580 0
584 580 0
-585 0
-75 580 -586 0
75 -580 -586 0
586 -580 -75 0
75 580 586 0
-586 0
581 587 0
582 587 0
583 587 0
584 587 0
-588 0
-589 587 -590 0
589 -587 -590 0
590 -587 -589 0
589 587 590 0
-590 0
582 591 0
583 591 0
584 591 0
-583 -584 -582 -591 0
-592 591 -593 0
592 -591 -593 0
593 -591 -592 0
592 591 593 0
-593 0
-594 591 -595 0
594 -591 -595 0
595 -591 -594 0
594 591 595 0
-595 0
-596 591 -597 0
596 -591 -597 0
597 -591 -596 0
596 591 597 0
-597 0
598 599 0
600 599 0
601 599 0
602 599 0
603 599 0
604 599 0
-605 0
-76 599 -606 0
76 -599 -606 0
606 -599 -76 0
76 599 606 0
-606 0
600 607 0
601 607 0
602 607 0
603 607 0
604 607 0
-608 0
-609 607 -610 0
609 -607 -610 0
610 -607 -609 0
609 607 610 0
-610 0
601 611 0
602 611 0
603 611 0
604 611 0
-612 0
-613 611 -614 0
613 -611 -614 0
614 -611 -613 0
613 611 614 0
-614 0
602 615 0
603 615 0
604 615 0
-602 -603 -604 -615 0
-616 615 -617 0
616 -615 -617 0
617 -615 -616 0
616 615 617 0
-617 0
603 618 0
604 618 0
-603 -604 -618 0
-619 618 -620 0
619 -618 -620 0
620 -618 -619 0
619 618 620 0
-620 0
-621 618 -622 0
621 -618 -622 0
622 -618 -621 0
621 618 622 0
-622 0
623 624 0
625 624 0
626 624 0
-623 -626 -625 -624 0
-77 624 -627 0
77 -624 -627 0
627 -624 -77 0
77 624 627 0
-627 0
625 628 0
626 628 0
-626 -625 -628 0
-629 628 -630 0
629 -628 -630 0
630 -628 -629 0
629 628 630 0
-630 0
631 -626 0
-631 626 0
632 633 0
634 633 0
635 633 0
636 633 0
637 633 0
638 633 0
-639 0
-78 633 -640 0
78 -633 -640 0
640 -633 -78 0
78 633 640 0
-640 0
634 641 0
635 641 0
636 641 0
637 641 0
638 641 0
-642 0
-643 641 -644 0
643 -641 -644 0
644 -641 -643 0
643 641 644 0
-644 0
635 645 0
636 645 0
637 645 0
638 645 0
-646 0
-647 645 -648 0
647 -645 -648 0
648 -645 -647 0
647 645 648 0
-648 0
636 649 0
637 649 0
638 649 0
-636 -637 -638 -649 0
-650 649 -651 0
650 -649 -651 0
651 -649 -650 0
650 649 651 0
-651 0
637 652 0
638 652 0
-637 -638 -652 0
-653 652 -654 0
653 -652 -654 0
654 -652 -653 0
653 652 654 0
-654 0
-655 652 -656 0
655 -652 -656 0
656 -652 -655 0
655 652 656 0
-656 0
657 658 0
659 658 0
660 658 0
661 658 0
662 658 0
-663 0
-79 658 -664 0
79 -658 -664 0
664 -658 -79 0
79 658 664 0
-664 0
659 665 0
660 665 0
661 665 0
662 665 0
-666 0
-667 665 -668 0
667 -665 -668 0
668 -665 -667 0
667 665 668 0
-668 0
660 669 0
661 669 0
662 669 0
-661 -660 -662 -669 0
-670 669 -671 0
670 -669 -671 0
671 -669 -670 0
670 669 671 0
-671 0
-672 669 -673 0
672 -669 -673 0
673 -669 -672 0
672 669 673 0
-673 0
-674 669 -675 0
674 -669 -675 0
675 -669 -674 0
674 669 675 0
-675 0
676 677 0
678 677 0
-678 -676 -677 0
-80 677 -679 0
80 -677 -679 0
679 -677 -80 0
80 677 679 0
-679 0
-680 677 -681 0
680 -677 -681 0
681 -677 -680 0
680 677 681 0
-681 0
682 683 0
684 683 0
685 683 0
686 683 0
687 683 0
688 683 0
-689 0
-81 683 -690 0
81 -683 -690 0
690 -683 -81 0
81 683 690 0
-690 0
684 691 0
685 691 0
686 691 0
687 691 0
688 691 0
-692 0
-693 691 -694 0
693 -691 -694 0
694 -691 -693 0
693 691 694 0
-694 0
685 695 0
686 695 0
687 695 0
688 695 0
-696 0
-697 695 -698 0
697 -695 -698 0
698 -695 -697 0
697 695 698 0
-698 0
686 699 0
687 699 0
688 699 0
-686 -687 -688 -699 0
-700 699 -701 0
700 -699 -701 0
701 -699 -700 0
700 699 701 0
-701 0
687 702 0
688 702 0
-687 -688 -702 0
-703 702 -704 0
703 -702 -704 0
704 -702 -703 0
703 702 704 0
-704 0
-705 702 -706 0
705 -702 -706 0
706 -702 -705 0
705 702 706 0
-706 0
707 708 0
709 708 0
710 708 0
711 708 0
-712 0
-82 708 -713 0
82 -708 -713 0
713 -708 -82 0
82 708 713 0
-713 0
709 714 0
710 714 0
711 714 0
-710 -709 -711 -714 0
-715 714 -716 0
715 -714 -716 0
716 -714 -715 0
715 714 716 0
-716 0
710 717 0
711 717 0
-710 -711 -717 0
-718 717 -719 0
718 -717 -719 0
719 -717 -718 0
718 717 719 0
-719 0
720 -711 0
-720 711 0
721 722 0
723 722 0
724 722 0
725 722 0
726 722 0
727 722 0
728 722 0
-729 0
-83 722 -730 0
83 -722 -730 0
730 -722 -83 0
83 722 730 0
-730 0
723 731 0
724 731 0
725 731 0
726 731 0
727 731 0
728 731 0
-732 0
-733 731 -734 0
733 -731 -734 0
734 -731 -733 0
733 731 734 0
-734 0
724 735 0
725 735 0
726 735 0
727 735 0
728 735 0
-736 0
-737 735 -738 0
737 -735 -738 0
738 -735 -737 0
737 735 738 0
-738 0
725 739 0
726 739 0
727 739 0
728 739 0
-740 0
-741 739 -742 0
741 -739 -742 0
742 -739 -741 0
741 739 742 0
-742 0
-743 739 -744 0
743 -739 -744 0
744 -739 -743 0
743 739 744 0
-744 0
-745 739 -746 0
745 -739 -746 0
746 -739 -745 0
745 739 746 0
-746 0
-747 739 -748 0
747 -739 -748 0
748 -739 -747 0
747 739 748 0
-748 0
749 750 0
751 750 0
752 750 0
753 750 0
-754 0
-84 750 -755 0
84 -750 -755 0
755 -750 -84 0
84 750 755 0
-755 0
751 756 0
752 756 0
753 756 0
-752 -751 -753 -756 0
-757 756 -758 0
757 -756 -758 0
758 -756 -757 0
757 756 758 0
-758 0
752 759 0
753 759 0
-752 -753 -759 0
-760 759 -761 0
760 -759 -761 0
761 -759 -760 0
760 759 761 0
-761 0
762 -753 0
-762 753 0
763 764 0
765 764 0
766 764 0
767 764 0
768 764 0
-769 0
-85 764 -770 0
85 -764 -770 0
770 -764 -85 0
85 764 770 0
-770 0
765 771 0
766 771 0
767 771 0
768 771 0
-772 0
-773 771 -774 0
773 -771 -774 0
774 -771 -773 0
773 771 774 0
-774 0
766 775 0
767 775 0
768 775 0
-767 -766 -768 -775 0
-776 775 -777 0
776 -775 -777 0
777 -775 -776 0
776 775 777 0
-777 0
767 778 0
768 778 0
-767 -768 -778 0
-779 778 -780 0
779 -778 -780 0
780 -778 -779 0
779 778 780 0
-780 0
781 -768 0
-781 768 0
782 783 0
784 783 0
785 783 0
786 783 0
787 783 0
788 783 0
-789 0
-86 783 -790 0
86 -783 -790 0
790 -783 -86 0
86 783 790 0
-790 0
784 791 0
785 791 0
786 791 0
787 791 0
788 791 0
-792 0
-793 791 -794 0
793 -791 -794 0
794 -791 -793 0
793 791 794 0
-794 0
785 795 0
786 795 0
787 795 0
788 795 0
-796 0
-797 795 -798 0
797 -795 -798 0
798 -795 -797 0
797 795 798 0
-798 0
-799 795 -800 0
799 -795 -800 0
800 -795 -799 0
799 795 800 0
-800 0
-801 795 -802 0
801 -795 -802 0
802 -795 -801 0
801 795 802 0
-802 0
-803 795 -804 0
803 -795 -804 0
804 -795 -803 0
803 795 804 0
-804 0
805 806 0
807 806 0
808 806 0
809 806 0
810 806 0
-811 0
-87 806 -812 0
87 -806 -812 0
812 -806 -87 0
87 806 812 0
-812 0
807 813 0
808 813 0
809 813 0
810 813 0
-814 0
-815 813 -816 0
815 -813 -816 0
816 -813 -815 0
815 813 816 0
-816 0
808 817 0
809 817 0
810 817 0
-808 -809 -810 -817 0
-818 817 -819 0
818 -817 -819 0
819 -817 -818 0
818 817 819 0
-819 0
809 820 0
810 820 0
-809 -810 -820 0
-821 820 -822 0
821 -820 -822 0
822 -820 -821 0
821 820 822 0
-822 0
823 -810 0
-823 810 0
824 825 0
826 825 0
827 825 0
828 825 0
-829 0
-88 825 -830 0
88 -825 -830 0
830 -825 -88 0
88 825 830 0
-830 0
826 831 0
827 831 0
828 831 0
-826 -827 -828 -831 0
-832 831 -833 0
832 -831 -833 0
833 -831 -832 0
832 831 833 0
-833 0
827 834 0
828 834 0
-827 -828 -834 0
-835 834 -836 0
835 -834 -836 0
836 -834 -835 0
835 834 836 0
-836 0
-837 834 -838 0
837 -834 -838 0
838 -834 -837 0
837 834 838 0
-838 0
839 840 0
841 840 0
842 840 0
843 840 0
844 840 0
845 840 0
-846 0
-89 840 -847 0
89 -840 -847 0
847 -840 -89 0
89 840 847 0
-847 0
841 848 0
842 848 0
843 848 0
844 848 0
845 848 0
-849 0
-850 848 -851 0
850 -848 -851 0
851 -848 -850 0
850 848 851 0
-851 0
842 852 0
843 852 0
844 852 0
845 852 0
-853 0
-854 852 -855 0
854 -852 -855 0
855 -852 -854 0
854 852 855 0
-855 0
-856 852 -857 0
856 -852 -857 0
857 -852 -856 0
856 852 857 0
-857 0
-858 852 -859 0
858 -852 -859 0
859 -852 -858 0
858 852 859 0
-859 0
-860 852 -861 0
860 -852 -861 0
861 -852 -860 0
860 852 861 0
-861 0
862 863 0
864 863 0
865 863 0
866 863 0
867 863 0
868 863 0
869 863 0
870 863 0
-871 0
-90 863 -872 0
90 -863 -872 0
872 -863 -90 0
90 863 872 0
-872 0
864 873 0
865 873 0
866 873 0
867 873 0
868 873 0
869 873 0
870 873 0
-874 0
-875 873 -876 0
875 -873 -876 0
876 -873 -875 0
875 873 876 0
-876 0
865 877 0
866 877 0
867 877 0
868 877 0
869 877 0
870 877 0
-878 0
-879 877 -880 0
879 -877 -880 0
880 -877 -879 0
879 877 880 0
-880 0
866 881 0
867 881 0
868 881 0
869 881 0
870 881 0
-882 0
-883 881 -884 0
883 -881 -884 0
884 -881 -883 0
883 881 884 0
-884 0
867 885 0
868 885 0
869 885 0
870 885 0
-886 0
-887 885 -888 0
887 -885 -888 0
888 -885 -887 0
887 885 888 0
-888 0
-889 885 -890 0
889 -885 -890 0
890 -885 -889 0
889 885 890 0
-890 0
-891 885 -892 0
891 -885 -892 0
892 -885 -891 0
891 885 892 0
-892 0
-893 885 -894 0
893 -885 -894 0
894 -885 -893 0
893 885 894 0
-894 0
895 896 0
897 896 0
898 896 0
899 896 0
900 896 0
901 896 0
-902 0
-91 896 -903 0
91 -896 -903 0
903 -896 -91 0
91 896 903 0
-903 0
897 904 0
898 904 0
899 904 0
900 904 0
901 904 0
-905 0
-906 904 -907 0
906 -904 -907 0
907 -904 -906 0
906 904 907 0
-907 0
898 908 0
899 908 0
900 908 0
901 908 0
-909 0
-910 908 -911 0
910 -908 -911 0
911 -908 -910 0
910 908 911 0
-911 0
-912 908 -913 0
912 -908 -913 0
913 -908 -912 0
912 908 913 0
-913 0
-914 908 -915 0
914 -908 -915 0
915 -908 -914 0
914 908 915 0
-915 0
-916 908 -917 0
916 -908 -917 0
917 -908 -916 0
916 908 917 0
-917 0
918 919 0
920 919 0
921 919 0
922 919 0
923 919 0
-924 0
-92 919 -925 0
92 -919 -925 0
925 -919 -92 0
92 919 925 0
-925 0
920 926 0
921 926 0
922 926 0
923 926 0
-927 0
-928 926 -929 0
928 -926 -929 0
929 -926 -928 0
928 926 929 0
-929 0
921 930 0
922 930 0
923 930 0
-921 -922 -923 -930 0
-931 930 -932 0
931 -930 -932 0
932 -930 -931 0
931 930 932 0
-932 0
922 933 0
923 933 0
-922 -923 -933 0
-934 933 -935 0
934 -933 -935 0
935 -933 -934 0
934 933 935 0
-935 0
-936 933 -937 0
936 -933 -937 0
937 -933 -936 0
936 933 937 0
-937 0
938 939 0
940 939 0
941 939 0
942 939 0
943 939 0
944 939 0
945 939 0
946 939 0
-947 0
-93 939 -948 0
93 -939 -948 0
948 -939 -93 0
93 939 948 0
-948 0
940 949 0
941 949 0
942 949 0
943 949 0
944 949 0
945 949 0
946 949 0
-950 0
-951 949 -952 0
951 -949 -952 0
952 -949 -951 0
951 949 952 0
-952 0
941 953 0
942 953 0
943 953 0
944 953 0
945 953 0
946 953 0
-954 0
-955 953 -956 0
955 -953 -956 0
956 -953 -955 0
955 953 956 0
-956 0
942 957 0
943 957 0
944 957 0
945 957 0
946 957 0
-958 0
-959 957 -960 0
959 -957 -960 0
960 -957 -959 0
959 957 960 0
-960 0
943 961 0
944 961 0
945 961 0
946 961 0
-962 0
-963 961 -964 0
963 -961 -964 0
964 -961 -963 0
963 961 964 0
-964 0
-965 961 -966 0
965 -961 -966 0
966 -961 -965 0
965 961 966 0
-966 0
-967 961 -968 0
967 -961 -968 0
968 -961 -967 0
967 961 968 0
-968 0
-969 961 -970 0
969 -961 -970 0
970 -961 -969 0
969 961 970 0
-970 0
971 972 0
973 972 0
974 972 0
975 972 0
976 972 0
977 972 0
-978 0
-94 972 -979 0
94 -972 -979 0
979 -972 -94 0
94 972 979 0
-979 0
973 980 0
974 980 0
975 980 0
976 980 0
977 980 0
-981 0
-982 980 -983 0
982 -980 -983 0
983 -980 -982 0
982 980 983 0
-983 0
974 984 0
975 984 0
976 984 0
977 984 0
-985 0
-986 984 -987 0
986 -984 -987 0
987 -984 -986 0
986 984 987 0
-987 0
-988 984 -989 0
988 -984 -989 0
989 -984 -988 0
988 984 989 0
-989 0
-990 984 -991 0
990 -984 -991 0
991 -984 -990 0
990 984 991 0
-991 0
-992 984 -993 0
992 -984 -993 0
993 -984 -992 0
992 984 993 0
-993 0
994 995 0
996 995 0
-996 -994 -995 0
-95 995 -997 0
95 -995 -997 0
997 -995 -95 0
95 995 997 0
-997 0
998 -996 0
-998 996 0
999 1000 0
1001 1000 0
1002 1000 0
1003 1000 0
1004 1000 0
1005 1000 0
1006 1000 0
-1007 0
-96 1000 -1008 0
96 -1000 -1008 0
1008 -1000 -96 0
96 1000 1008 0
-1008 0
1001 1009 0
1002 1009 0
1003 1009 0
1004 1009 0
1005 1009 0
1006 1009 0
-1010 0
-1011 1009 -1012 0
1011 -1009 -1012 0
1012 -1009 -1011 0
1011 1009 1012 0
-1012 0
1002 1013 0
1003 1013 0
1004 1013 0
1005 1013 0
1006 1013 0
-1014 0
-1015 1013 -1016 0
1015 -1013 -1016 0
1016 -1013 -1015 0
1015 1013 1016 0
-1016 0
1003 1017 0
1004 1017 0
1005 1017 0
1006 1017 0
-1018 0
-1019 1017 -1020 0
1019 -1017 -1020 0
1020 -1017 -1019 0
1019 1017 1020 0
-1020 0
-1021 1017 -1022 0
1021 -1017 -1022 0
1022 -1017 -1021 0
1021 1017 1022 0
-1022 0
-1023 1017 -1024 0
1023 -1017 -1024 0
1024 -1017 -1023 0
1023 1017 1024 0
-1024 0
-1025 1017 -1026 0
1025 -1017 -1026 0
1026 -1017 -1025 0
1025 1017 1026 0
-1026 0
1027 1028 0
1029 1028 0
-1029 -1027 -1028 0
-97 1028 -1030 0
97 -1028 -1030 0
1030 -1028 -97 0
97 1028 1030 0
-1030 0
1031 -1029 0
-1031 1029 0
1032 1033 0
1034 1033 0
1035 1033 0
1036 1033 0
-1037 0
-98 1033 -1038 0
98 -1033 -1038 0
1038 -1033 -98 0
98 1033 1038 0
-1038 0
1034 1039 0
1035 1039 0
1036 1039 0
-1034 -1035 -1036 -1039 0
-1040 1039 -1041 0
1040 -1039 -1041 0
1041 -1039 -1040 0
1040 1039 1041 0
-1041 0
1035 1042 0
1036 1042 0
-1035 -1036 -1042 0
-1043 1042 -1044 0
1043 -1042 -1044 0
1044 -1042 -1043 0
1043 1042 1044 0
-1044 0
1045 -1036 0
-1045 1036 0
1046 1047 0
1048 1047 0
1049 1047 0
1050 1047 0
1051 1047 0
1052 1047 0
-1053 0
-99 1047 -1054 0
99 -1047 -1054 0
1054 -1047 -99 0
99 1047 1054 0
-1054 0
1048 1055 0
1049 1055 0
1050 1055 0
1051 1055 0
1052 1055 0
-1056 0
-1057 1055 -1058 0
1057 -1055 -1058 0
1058 -1055 -1057 0
1057 1055 1058 0
-1058 0
1049 1059 0
1050 1059 0
1051 1059 0
1052 1059 0
-1060 0
-1061 1059 -1062 0
1061 -1059 -1062 0
1062 -1059 -1061 0
1061 1059 1062 0
-1062 0
1050 1063 0
1051 1063 0
1052 1063 0
-1051 -1050 -1052 -1063 0
-1064 1063 -1065 0
1064 -1063 -1065 0
1065 -1063 -1064 0
1064 1063 1065 0
-1065 0
-1066 1063 -1067 0
1066 -1063 -1067 0
1067 -1063 -1066 0
1066 1063 1067 0
-1067 0
-1068 1063 -1069 0
1068 -1063 -1069 0
1069 -1063 -1068 0
1068 1063 1069 0
-1069 0
1070 1071 0
1072 1071 0
1073 1071 0
1074 1071 0
-1075 0
-100 1071 -1076 0
100 -1071 -1076 0
1076 -1071 -100 0
100 1071 1076 0
-1076 0
1072 1077 0
1073 1077 0
1074 1077 0
-1072 -1073 -1074 -1077 0
-1078 1077 -1079 0
1078 -1077 -1079 0
1079 -1077 -1078 0
1078 1077 1079 0
-1079 0
1073 1080 0
1074 1080 0
-1073 -1074 -1080 0
-1081 1080 -1082 0
1081 -1080 -1082 0
1082 -1080 -1081 0
1081 1080 1082 0
-1082 0
-1083 1080 -1084 0
1083 -1080 -1084 0
1084 -1080 -1083 0
1083 1080 1084 0
-1084 0
101 -1085 0
102 -1085 0
103 -1085 0
104 -1085 0
105 -1085 0
106 -1085 0
107 -1085 0
108 -1085 0
109 -1085 0
110 -1085 0
111 -1085 0
112 -1085 0
113 -1085 0
114 -1085 0
115 -1085 0
116 -1085 0
117 -1085 0
118 -1085 0
119 -1085 0
120 -1085 0
121 -1085 0
122 -1085 0
123 -1085 0
124 -1085 0
125 -1085 0
126 -1085 0
127 -1085 0
128 -1085 0
129 -1085 0
130 -1085 0
131 -1085 0
132 -1085 0
133 -1085 0
134 -1085 0
135 -1085 0
136 -1085 0
137 -1085 0
138 -1085 0
139 -1085 0
140 -1085 0
141 -1085 0
142 -1085 0
143 -1085 0
144 -1085 0
145 -1085 0
146 -1085 0
147 -1085 0
148 -1085 0
149 -1085 0
150 -1085 0
151 -1085 0
-1085 -153 0
154 -1085 0
160 -1085 0
162 -1085 0
-1085 -163 0
-1085 -169 0
-1085 -171 0
172 -1085 0
173 -1085 0
-1085 -183 0
-1085 -185 0
-1085 -186 0
187 -1085 0
-1085 -198 0
-1085 -200 0
-1085 -201 0
-1085 -202 0
-1085 -203 0
-1085 -204 0
-1085 -205 0
206 -1085 0
-1085 -231 0
233 -1085 0
-1085 -234 0
-1085 -235 0
236 -1085 0
-1085 -237 0
-1085 -254 0
256 -1085 0
-1085 -257 0
-1085 -258 0
-1085 -259 0
260 -1085 0
261 -1085 0
282 -1085 0
-1085 -284 0
287 -1085 0
-1085 -289 0
290 -1085 0
-1085 -291 0
-1085 -292 0
293 -1085 0
-1085 -294 0
315 -1085 0
-1085 -317 0
318 -1085 0
-1085 -319 0
-1085 -329 0
-1085 -330 0
332 -1085 0
-1085 -333 0
334 -1085 0
335 -1085 0
-1085 -336 0
-1085 -353 0
355 -1085 0
-1085 -356 0
357 -1085 0
358 -1085 0
-1085 -359 0
-1085 -376 0
-1085 -378 0
-1085 -379 0
-1085 -380 0
381 -1085 0
396 -1085 0
-1085 -398 0
399 -1085 0
-1085 -400 0
-1085 -401 0
414 -1085 0
416 -1085 0
417 -1085 0
-1085 -418 0
-1085 -419 0
420 -1085 0
-1085 -421 0
442 -1085 0
-1085 -444 0
445 -1085 0
-1085 -451 0
-1085 -453 0
-1085 -454 0
-1085 -455 0
-1085 -456 0
457 -1085 0
458 -1085 0
-1085 -480 0
-1085 -482 0
-1085 -483 0
-1085 -484 0
485 -1085 0
486 -1085 0
504 -1085 0
-1085 -506 0
-1085 -509 0
-1085 -511 0
-1085 -512 0
-1085 -513 0
514 -1085 0
-1085 -529 0
531 -1085 0
535 -1085 0
-1085 -537 0
-1085 -538 0
539 -1085 0
550 -1085 0
552 -1085 0
-1085 -553 0
554 -1085 0
-1085 -555 0
556 -1085 0
-1085 -557 0
-1085 -579 0
581 -1085 0
582 -1085 0
-1085 -583 0
-1085 -584 0
598 -1085 0
-1085 -600 0
601 -1085 0
-1085 -602 0
-1085 -603 0
604 -1085 0
-1085 -623 0
625 -1085 0
-1085 -626 0
632 -1085 0
634 -1085 0
635 -1085 0
-1085 -636 0
-1085 -637 0
638 -1085 0
657 -1085 0
-1085 -659 0
660 -1085 0
-1085 -661 0
662 -1085 0
676 -1085 0
-1085 -678 0
-1085 -682 0
684 -1085 0
685 -1085 0
-1085 -686 0
-1085 -687 0
688 -1085 0
-1085 -707 0
709 -1085 0
-1085 -710 0
711 -1085 0
721 -1085 0
-1085 -723 0
724 -1085 0
-1085 -725 0
-1085 -726 0
727 -1085 0
-1085 -728 0
749 -1085 0
751 -1085 0
-1085 -752 0
753 -1085 0
763 -1085 0
765 -1085 0
766 -1085 0
-1085 -767 0
768 -1085 0
782 -1085 0
-1085 -784 0
785 -1085 0
-1085 -786 0
-1085 -787 0
788 -1085 0
-1085 -805 0
-1085 -807 0
-1085 -808 0
-1085 -809 0
810 -1085 0
824 -1085 0
-1085 -826 0
-1085 -827 0
828 -1085 0
839 -1085 0
-1085 -841 0
-1085 -842 0
-1085 -843 0
-1085 -844 0
845 -1085 0
-1085 -862 0
864 -1085 0
-1085 -865 0
-1085 -866 0
-1085 -867 0
868 -1085 0
869 -1085 0
870 -1085 0
-1085 -895 0
897 -1085 0
-1085 -898 0
-1085 -899 0
900 -1085 0
-1085 -901 0
918 -1085 0
920 -1085 0
-1085 -921 0
-1085 -922 0
923 -1085 0
938 -1085 0
-1085 -940 0
-1085 -941 0
-1085 -942 0
-1085 -943 0
-1085 -944 0
945 -1085 0
946 -1085 0
-1085 -971 0
973 -1085 0
-1085 -974 0
975 -1085 0
976 -1085 0
-1085 -977 0
994 -1085 0
-1085 -996 0
-1085 -999 0
1001 -1085 0
1002 -1085 0
1003 -1085 0
1004 -1085 0
1005 -1085 0
-1085 -1006 0
1027 -1085 0
-1085 -1029 0
1032 -1085 0
-1085 -1034 0
-1085 -1035 0
1036 -1085 0
-1085 -1046 0
-1085 -1048 0
-1085 -1049 0
1050 -1085 0
-1085 -1051 0
1052 -1085 0
1070 -1085 0
-1085 -1072 0
-1085 -1073 0
1074 -1085 0
1085 0
-1086 0
-1087 0
-1088 0
-1089 0
-1090 0
-1091 0
-1092 0
-1093 0
